unsat
(define-fun f ((x (_ BitVec 32))) (_ BitVec 32) (bvor x (bvsub x #b00000000000000000000000000000001)))
0.01user 0.00system 0:00.01elapsed 94%CPU (0avgtext+0avgdata 25752maxresident)k
0inputs+8outputs (0major+1084minor)pagefaults 0swaps
